GLPSOL--GLPK LP/MIP Solver 5.0
Parameter(s) specified in the command line:
 --lp ../modeles/20_434.lp --log 20_434.log
Reading problem data from '../modeles/20_434.lp'...
8761 rows, 17400 columns, 60820 non-zeros
8680 integer variables, all of which are binary
26187 lines were read
GLPK Integer Optimizer 5.0
8761 rows, 17400 columns, 60820 non-zeros
8680 integer variables, all of which are binary
Preprocessing...
8600 constraint coefficient(s) were reduced
8761 rows, 17380 columns, 60800 non-zeros
8680 integer variables, all of which are binary
Scaling...
 A: min|aij| =  8.495e-05  max|aij| =  4.000e+00  ratio =  4.709e+04
GM: min|aij| =  6.788e-02  max|aij| =  1.473e+01  ratio =  2.170e+02
EQ: min|aij| =  4.608e-03  max|aij| =  1.000e+00  ratio =  2.170e+02
2N: min|aij| =  3.906e-03  max|aij| =  1.709e+00  ratio =  4.375e+02
Constructing initial basis...
Size of triangular part is 8761
Solving LP relaxation...
GLPK Simplex Optimizer 5.0
8761 rows, 17380 columns, 60800 non-zeros
      0: obj =   4.000000000e+01 inf =   1.142e+03 (41)
Perturbing LP to avoid stalling [199]...
    619: obj =   2.248468245e-01 inf =   0.000e+00 (0)
Removing LP perturbation [1651]...
*  1651: obj =  -4.471409762e+00 inf =   2.510e-13 (0) 1
OPTIMAL LP SOLUTION FOUND
Integer optimization begins...
Long-step dual simplex will be used
+  1651: mip =     not found yet >=              -inf        (1; 0)
+  1825: mip =     not found yet >=  -4.471409762e+00        (176; 0)
+  1993: mip =     not found yet >=  -4.471409762e+00        (343; 0)
+  2136: mip =     not found yet >=  -4.471409762e+00        (485; 0)
+  2297: mip =     not found yet >=  -4.471409762e+00        (646; 0)
+  2475: mip =     not found yet >=  -4.471409762e+00        (823; 0)
+  2650: mip =     not found yet >=  -4.471409762e+00        (997; 0)
+  2834: mip =     not found yet >=  -4.471409762e+00        (1179; 0)
+  3061: mip =     not found yet >=  -4.471409762e+00        (1406; 0)
+  3274: mip =     not found yet >=  -4.471409762e+00        (1617; 0)
+  3476: >>>>>  -4.471409762e+00 >=  -4.471409762e+00 < 0.1% (1817; 0)
+  3476: mip =  -4.471409762e+00 >=     tree is empty   0.0% (0; 3633)
INTEGER OPTIMAL SOLUTION FOUND
Time used:   49.9 secs
Memory used: 25.4 Mb (26653590 bytes)
